319
3
47, 74, 98, 119, 64, 10, 60, 20, 119, 11, 32, 29, 132, 109, 8, 104, 21, 85, 68, 25, 26, 45, 130, 72, 103, 18, 52, 100, 137, 46
115, 33, 14, 53, 83, 35, 42, 56, 7, 93, 55, 42, 45, 135, 78, 132, 100, 15, 108, 44, 58, 115, 134, 127, 22, 125, 70, 68, 81, 27
3, 1, 2, 1, 2, 3, 2, 2, 1, 1, 2, 3, 2, 1, 2, 2, 2, 1, 1, 1, 1, 1, 2, 2, 1, 2, 1, 2, 3, 3